<number of tasks>
25

<cycle time>
21

<task times>
1 4
2 3
3 9
4 5
5 9
6 4
7 8
8 7
9 5
10 1
11 3
12 1
13 5
14 3
15 5
16 3
17 13
18 5
19 2
20 3
21 7
22 5
23 3
24 8
25 4

<precedence relations>
1,3
2,3
3,4
4,5
4,8
5,6
6,7
6,10
7,11
7,12
8,9
8,11
9,10
9,13
11,13
12,15
13,14
14,16
14,19
14,20
15,17
15,22
16,18
17,18
17,23
18,25
19,22
20,21
20,25
21,22
21,24
23,25

<setup times forward>
1,3:1
2,3:1
3,4:1
4,8:1
5,6:1
5,8:1
6,7:1
6,9:1
7,8:1
7,10:1
7,11:1
8,5:1
8,7:1
8,9:1
8,12:1
8,17:1
8,23:1
9,6:1
9,10:1
9,11:1
9,15:1
10,7:1
10,12:1
10,13:1
10,14:1
10,17:1
10,19:1
10,20:1
10,21:1
10,23:1
11,9:1
11,12:1
11,13:1
11,17:1
11,23:1
12,8:1
12,10:1
12,11:1
12,15:1
12,16:1
12,24:1
13,10:1
13,15:1
14,10:1
14,15:1
14,16:1
15,9:1
15,13:1
15,14:1
15,17:1
15,19:1
15,20:1
15,21:1
16,12:1
16,17:1
16,19:1
16,20:1
16,21:1
16,23:1
17,8:1
17,10:1
17,11:1
17,16:1
17,18:1
17,22:1
17,24:1
18,19:1
18,20:1
18,21:1
18,23:1
19,10:1
19,15:1
19,16:1
19,18:1
19,22:1
19,24:1
19,25:1
20,10:1
20,15:1
20,16:1
20,18:1
20,25:1
21,10:1
21,15:1
21,16:1
21,18:1
21,22:1
21,24:1
21,25:1
22,17:1
22,23:1
23,8:1
23,10:1
23,11:1
23,16:1
23,18:1
23,22:1
23,24:1
23,25:1
24,12:1
24,17:1
24,19:1
24,23:1
25,19:1
25,21:1

<setup times backward>
1,1:2
1,2:2
2,1:2
2,2:2
3,1:1
3,2:1
3,3:2
4,1:2
4,2:2
4,3:3
4,4:2
5,1:2
5,2:2
5,3:3
5,4:2
5,5:2
5,8:3
5,9:2
6,1:1
6,2:1
6,3:2
6,4:1
6,5:1
6,6:2
6,8:2
6,9:1
7,1:2
7,2:2
7,3:3
7,4:2
7,5:2
7,6:3
7,7:2
7,8:3
7,9:2
7,10:3
8,1:1
8,2:1
8,3:2
8,4:1
8,5:1
8,6:2
8,7:1
8,8:2
8,12:1
8,15:2
8,17:1
8,23:1
9,1:2
9,2:2
9,3:3
9,4:2
9,5:2
9,6:3
9,7:2
9,8:3
9,9:2
9,11:3
9,12:2
9,15:3
9,17:2
9,23:2
10,1:1
10,2:1
10,3:2
10,4:1
10,5:1
10,6:2
10,7:1
10,8:2
10,9:1
10,10:2
10,11:2
10,12:1
10,13:1
10,14:1
10,15:2
10,16:2
10,17:1
10,18:2
10,19:1
10,20:1
10,21:1
10,22:2
10,23:1
10,24:2
10,25:2
11,1:1
11,2:1
11,3:2
11,4:1
11,5:1
11,6:2
11,7:1
11,8:2
11,9:1
11,10:2
11,11:2
11,12:1
11,15:2
11,17:1
11,23:1
12,1:2
12,2:2
12,3:3
12,4:2
12,5:2
12,6:3
12,7:2
12,8:3
12,9:2
12,10:3
12,11:3
12,12:2
12,13:2
12,14:2
12,16:3
12,19:2
12,20:2
12,21:2
12,24:3
13,1:2
13,2:2
13,3:3
13,4:2
13,5:2
13,6:3
13,7:2
13,8:3
13,9:2
13,10:3
13,11:3
13,12:2
13,13:2
13,15:3
13,17:2
13,23:2
14,1:2
14,2:2
14,3:3
14,4:2
14,5:2
14,6:3
14,7:2
14,8:3
14,9:2
14,10:3
14,11:3
14,12:2
14,13:2
14,14:2
14,15:3
14,17:2
14,23:2
15,1:1
15,2:1
15,3:2
15,4:1
15,5:1
15,6:2
15,7:1
15,8:2
15,9:1
15,10:2
15,11:2
15,12:1
15,13:1
15,14:1
15,15:2
15,16:2
15,19:1
15,20:1
15,21:1
15,24:2
16,1:1
16,2:1
16,3:2
16,4:1
16,5:1
16,6:2
16,7:1
16,8:2
16,9:1
16,10:2
16,11:2
16,12:1
16,13:1
16,14:1
16,15:2
16,16:2
16,17:1
16,19:1
16,20:1
16,21:1
16,22:2
16,23:1
16,24:2
17,1:2
17,2:2
17,3:3
17,4:2
17,5:2
17,6:3
17,7:2
17,8:3
17,9:2
17,10:3
17,11:3
17,12:2
17,13:2
17,14:2
17,15:3
17,16:3
17,17:2
17,19:2
17,20:2
17,21:2
17,22:3
17,24:3
18,1:1
18,2:1
18,3:2
18,4:1
18,5:1
18,6:2
18,7:1
18,8:2
18,9:1
18,10:2
18,11:2
18,12:1
18,13:1
18,14:1
18,15:2
18,16:2
18,17:1
18,18:2
18,19:1
18,20:1
18,21:1
18,22:2
18,23:1
18,24:2
19,1:2
19,2:2
19,3:3
19,4:2
19,5:2
19,6:3
19,7:2
19,8:3
19,9:2
19,10:3
19,11:3
19,12:2
19,13:2
19,14:2
19,15:3
19,16:3
19,17:2
19,18:3
19,19:2
19,20:2
19,21:2
19,23:2
19,24:3
19,25:3
20,1:2
20,2:2
20,3:3
20,4:2
20,5:2
20,6:3
20,7:2
20,8:3
20,9:2
20,10:3
20,11:3
20,12:2
20,13:2
20,14:2
20,15:3
20,16:3
20,17:2
20,18:3
20,19:2
20,20:2
20,23:2
21,1:2
21,2:2
21,3:3
21,4:2
21,5:2
21,6:3
21,7:2
21,8:3
21,9:2
21,10:3
21,11:3
21,12:2
21,13:2
21,14:2
21,15:3
21,16:3
21,17:2
21,18:3
21,19:2
21,20:2
21,21:2
21,23:2
21,25:3
22,1:1
22,2:1
22,3:2
22,4:1
22,5:1
22,6:2
22,7:1
22,8:2
22,9:1
22,10:2
22,11:2
22,12:1
22,13:1
22,14:1
22,15:2
22,16:2
22,17:1
22,18:2
22,19:1
22,20:1
22,21:1
22,22:2
22,23:1
22,24:2
22,25:2
23,1:2
23,2:2
23,3:3
23,4:2
23,5:2
23,6:3
23,7:2
23,8:3
23,9:2
23,10:3
23,11:3
23,12:2
23,13:2
23,14:2
23,15:3
23,16:3
23,17:2
23,18:3
23,19:2
23,20:2
23,21:2
23,22:3
23,23:2
23,24:3
24,1:1
24,2:1
24,3:2
24,4:1
24,5:1
24,6:2
24,7:1
24,8:2
24,9:1
24,10:2
24,11:2
24,12:1
24,13:1
24,14:1
24,15:2
24,16:2
24,17:1
24,18:2
24,19:1
24,20:1
24,21:1
24,22:2
24,23:1
24,24:2
24,25:2
25,1:1
25,2:1
25,3:2
25,4:1
25,5:1
25,6:2
25,7:1
25,8:2
25,9:1
25,10:2
25,11:2
25,12:1
25,13:1
25,14:1
25,15:2
25,16:2
25,17:1
25,18:2
25,19:1
25,20:1
25,21:1
25,22:2
25,23:1
25,24:2
25,25:2

<end>

<optimal SALBP-1 value>
6


<rand seed>
467321153

<Lower Bounds>
Lm1=6
Lms1=6
Lm2=1
Lm3=4
Lm4=7
Best=7

<Optimal Stations (Iterations: 10)>
8
